\ENCODING=ISO-8859-1
\Problem name: ilog.cplex

Minimize
 obj: 135.65334427523 P30 + 150.176650908535 P31 + 153.17771478697 P32
      + 158.955184774999 P33 + 76.54452878106 P34 + 82.3219987690885 P35
      + 77.2177906655312 P36 + 82.9952606535597 P37 + 208.186387651598 P38
      + 131.553201645687 P39 + 132.526323671924 P40 + 137.838295237644 P41
      + 138.81141726388 P42 + 74.2924594851757 P43 + 150.685812400572 P44
      + 75.265581511412 P45 + 156.970905992528 P46 + 158.616220577359 P47
      + 93.4250702400606 P48 + 173.374468024309 P49 + 179.151938012338 P50
      + 120.626362551503 P51 + 43.9931765455927 P52 + 121.599484577739 P53
      + 44.966298571829 P54 + 106.431230632996 P55 + 128.316937637777 P56
      + 127.643675753305 P57 + 112.208700621024 P58 + 116.113725863798 P59
      + 121.891195851826 P60 + 63.1257873004776 P61
Subject To
 c1: P31 + P32 + P33 + P34 + P35 + P38 + P39 + P40 + P44 + P49 + P50 + P55
     + P57 + P58  = 1
 c1: P30 + P32 + P33 + P36 + P37 + P38 + P41 + P42 + P46 + P47 + P49 + P50
     + P51 + P53 + P56 + P59 + P60  = 1
 c2: P31 + P38 + P39 + P40 + P41 + P42 + P43 + P44 + P45 + P46 + P47 + P48
     + P51 + P52 + P53 + P54 + P56 + P57 + P61  = 1
 c3: P30 + P38 + P39 + P40 + P41 + P42 + P43 + P44 + P45 + P46 + P47 + P48
     + P49 + P50 + P55 + P58 + P59 + P60  = 1
 c4: P30 + P31 + P32 + P33 + P34 + P35 + P36 + P37 + P38 + P39 + P40 + P41
     + P42 + P43 + P44 + P45 + P46 + P47 + P48 + P49 + P50 + P51 + P52 + P53
     + P54 + P55 + P56 + P57 + P58 + P59 + P60 + P61 <= 2
Bounds
 0 <= P30 <= 1
 0 <= P31 <= 1
 0 <= P32 <= 1
 0 <= P33 <= 1
 0 <= P34 <= 1
 0 <= P35 <= 1
 0 <= P36 <= 1
 0 <= P37 <= 1
 0 <= P38 <= 1
 0 <= P39 <= 1
 0 <= P40 <= 1
 0 <= P41 <= 1
 0 <= P42 <= 1
 0 <= P43 <= 1
 0 <= P44 <= 1
 0 <= P45 <= 1
 0 <= P46 <= 1
 0 <= P47 <= 1
 0 <= P48 <= 1
 0 <= P49 <= 1
 0 <= P50 <= 1
 0 <= P51 <= 1
 0 <= P52 <= 1
 0 <= P53 <= 1
 0 <= P54 <= 1
 0 <= P55 <= 1
 0 <= P56 <= 1
 0 <= P57 <= 1
 0 <= P58 <= 1
 0 <= P59 <= 1
 0 <= P60 <= 1
 0 <= P61 <= 1
Generals
 P30  P31  P32  P33  P34  P35  P36  P37  P38  P39  P40  P41  P42  P43  P44 
 P45  P46  P47  P48  P49  P50  P51  P52  P53  P54  P55  P56  P57  P58  P59 
 P60  P61 
End
